c This is QMaxSAT 2017 based on 14.07
c This is Glucose 3.0
c This is MiniSat 2.2.0
c WARNING: for repeatability, setting FPU to use double precision
c card = mrwto, comp = 0, pmodel = 0, narr = 4, mct = 42, verb = 0
cr firstCPXsol 0 0 0
c top = 127531
c |  Number of variables:    74296                                            |
c |  Number of clauses:      54921558                                         |
c |  Weight of hard clauses: 127531                                           |
c |  Number of soft clauses: 6888                                             |
c |  Number of unit soft clauses: 6888                                        |
c |  Maximum Cardinality (by unit): 510120       (510120      )               |
c last restart ## conflicts  :  21 23483 
o 1098 | cpuTime 27.1074 s
c Sum of weights = 127530
c A number of soft clauses remained = 1722
c MRWTO encoding for Pseudo-Boolean Constraints
c sizeMax=1098
c No.0 Divisor=11	generated by pow1
c No.1 Divisor=11	generated by pow1
c No.2 Divisor=11	generated by pow1
c p0= 11	p1= 11	p2= 11	
c number of digits = 4
c linkingVar[0].size = 11, linkingVar[1].size = 11, linkingVar[2].size = 10, linkingVar[3].size = 1, 
c Pseudo-Boolean Constraints: 34497 variables and 302901 clauses
c Sum of weights = 127530
c A number of soft clauses remained = 1722
c MRWTO encoding for Pseudo-Boolean Constraints
c sizeMax=1098
c No.0 Divisor=11	generated by pow1
c No.1 Divisor=11	generated by pow1
c No.2 Divisor=11	generated by pow1
c p0= 11	p1= 11	p2= 11	
c number of digits = 4
c linkingVar[0].size = 11, linkingVar[1].size = 11, linkingVar[2].size = 10, linkingVar[3].size = 1, 
c Pseudo-Boolean Constraints: 34497 variables and 302901 clauses
c Sum of weights = 127530
c A number of soft clauses remained = 1722
c MRWTO encoding for Pseudo-Boolean Constraints
c sizeMax=1098
c No.0 Divisor=11	generated by pow1
c No.1 Divisor=11	generated by pow1
c No.2 Divisor=11	generated by pow1
c p0= 11	p1= 11	p2= 11	
c number of digits = 4
c linkingVar[0].size = 11, linkingVar[1].size = 11, linkingVar[2].size = 10, linkingVar[3].size = 1, 
c Pseudo-Boolean Constraints: 34497 variables and 302901 clauses
c Sum of weights = 127530
c A number of soft clauses remained = 1722
c MRWTO encoding for Pseudo-Boolean Constraints
c sizeMax=1098
c No.0 Divisor=11	generated by pow1
c No.1 Divisor=11	generated by pow1
c No.2 Divisor=11	generated by pow1
c p0= 11	p1= 11	p2= 11	
c number of digits = 4
c linkingVar[0].size = 11, linkingVar[1].size = 11, linkingVar[2].size = 10, linkingVar[3].size = 1, 
c Pseudo-Boolean Constraints: 34497 variables and 302901 clauses
c last restart ## conflicts  :  1172 24289 
o 988 | cpuTime 108.965 s
c last restart ## conflicts  :  1041 23209 
o 908 | cpuTime 600.743 s
c last restart ## conflicts  :  396 22678 
o 855 | cpuTime 1166.3 s
c last restart ## conflicts  :  440 21727 
o 819 | cpuTime 1278.48 s
c last restart ## conflicts  :  627 23239 
o 785 | cpuTime 1415.08 s
c last restart ## conflicts  :  1405 22684 
o 722 | cpuTime 1875.89 s
c last restart ## conflicts  :  1043 21674 
o 614 | cpuTime 2405.59 s
s UNKNOWN
c Search is stopped by a limit (maybe time-limit)
cr positiVarArr: [ | 34@1(1->34) | 125@1(3->41) | 330@1(8->36) | 428@1(11->8) | 605@1(15->17) | 683@1(17->11) | 1149@1(28->15) | 1372@1(33->28) | 1419@1(34->33) | 1473@1(36->3) | 1681@1(41->1) | 1802@2(1->38) | 1813@2(2->7) | 2053@2(7->37) | 2686@2(22->40) | 2857@2(27->1) | 2970@2(29->30) | 3009@2(30->27) | 3305@2(37->29) | 3340@2(38->22) | 3404@2(40->2) | 3534@3(1->6) | 3655@3(4->1) | 3700@3(5->4) | 3773@3(6->35) | 3918@3(10->12) | 4016@3(12->26) | 4336@3(20->10) | 4388@3(21->20) | 4519@3(24->25) | 4568@3(25->32) | 4602@3(26->24) | 4793@3(31->5) | 4861@3(32->31) | 4995@3(35->39) | 5145@3(39->21) | 5301@4(1->9) | 5647@4(9->19) | 5810@4(13->14) | 5854@4(14->16) | 5940@4(16->18) | 6029@4(18->23) | 6061@4(19->13) | 6258@4(23->42) | 7015@4(42->1) | ]
cr the 1-th chain: [ 1->34->33->28->15->17->11->8->36->3->41->1 ] (#non-depot=10) {#cumul.=11}
cr the 2-th chain: [ 1->38->22->40->2->7->37->29->30->27->1 ] (#non-depot=9) {#cumul.=20}
cr the 3-th chain: [ 1->6->35->39->21->20->10->12->26->24->25->32->31->5->4->1 ] (#non-depot=14) {#cumul.=34}
cr the 4-th chain: [ 1->9->19->13->14->16->18->23->42->1 ] (#non-depot=8) {#cumul.=42}
c Latest Answer = 0 by 8 loops
c restarts              : 100321
c conflicts             : 12788740       (3568 /sec)
c decisions             : 1028007875     (0.00 % random) (286822 /sec)
c propagations          : 23895018200    (6666882 /sec)
c conflict literals     : 3129936775     (8.16 % deleted)
c Memory used           : 5459.00 MB
c CPU time              : 3584.14 s
